\ENCODING=ISO-8859-1
\Problem name: IloCplex

Maximize
 obj1: 100 x1 + 100 x2 + 100 x3 + 100 x4 + 100 x5 + 100 x6 + 100 x7 + 100 x8
       + 100 x9 + 100 x10 + 100 x11 + 100 x12 + 100 x13 + 100 x14 + 100 x15
       + 100 x16 + 100 x17 + 100 x18 + 100 x19 + 100 x20 + 100 x21 + 100 x22
       + 100 x23 + 100 x24 + 100 x25
Subject To
 MaxVisit#0:      x1 + x6 + x11 + x16 + x21 <= 1
 MaxVisit#1:      x2 + x7 + x12 + x17 + x22 <= 1
 MaxVisit#2:      x3 + x8 + x13 + x18 + x23 <= 1
 MaxVisit#3:      x4 + x9 + x14 + x19 + x24 <= 1
 MaxVisit#4:      x5 + x10 + x15 + x20 + x25 <= 1
 StartLimit#5:    x26 + x27 + x28 + x29 + x30 <= 1
 FlowCons#6:      x26 + x27 + x28 + x29 + x30 - x31 - x32 - x33 - x34 - x35
                   = 0
 PathCont#7:      x26 - x31 + x36 - x37 + x38 - x39 + x40 - x41 + x42 - x43
                   = 0
 PathCont#8:      x27 - x32 - x36 + x37 + x44 - x45 + x46 - x47 + x48 - x49
                   = 0
 PathCont#9:      x28 - x33 - x38 + x39 - x44 + x45 + x50 - x51 + x52 - x53
                   = 0
 PathCont#10:     x29 - x34 - x40 + x41 - x46 + x47 - x50 + x51 + x54 - x55
                   = 0
 PathCont#11:     x30 - x35 - x42 + x43 - x48 + x49 - x52 + x53 - x54 + x55
                   = 0
 LinkXY#12:       x26 + x27 + x28 + x29 + x30 - x56  = 0
 LinkXY#13:       - x1 + x31 + x37 + x39 + x41 + x43  = 0
 LinkXY#14:       - x2 + x32 + x36 + x45 + x47 + x49  = 0
 LinkXY#15:       - x3 + x33 + x38 + x44 + x51 + x53  = 0
 LinkXY#16:       - x4 + x34 + x40 + x46 + x50 + x55  = 0
 LinkXY#17:       - x5 + x35 + x42 + x48 + x52 + x54  = 0
 StartLimit#18:   x57 + x58 + x59 + x60 + x61 <= 1
 FlowCons#19:     x57 + x58 + x59 + x60 + x61 - x62 - x63 - x64 - x65 - x66
                   = 0
 PathCont#20:     x57 - x62 + x67 - x68 + x69 - x70 + x71 - x72 + x73 - x74
                   = 0
 PathCont#21:     x58 - x63 - x67 + x68 + x75 - x76 + x77 - x78 + x79 - x80
                   = 0
 PathCont#22:     x59 - x64 - x69 + x70 - x75 + x76 + x81 - x82 + x83 - x84
                   = 0
 PathCont#23:     x60 - x65 - x71 + x72 - x77 + x78 - x81 + x82 + x85 - x86
                   = 0
 PathCont#24:     x61 - x66 - x73 + x74 - x79 + x80 - x83 + x84 - x85 + x86
                   = 0
 LinkXY#25:       x57 + x58 + x59 + x60 + x61 - x87  = 0
 LinkXY#26:       - x6 + x62 + x68 + x70 + x72 + x74  = 0
 LinkXY#27:       - x7 + x63 + x67 + x76 + x78 + x80  = 0
 LinkXY#28:       - x8 + x64 + x69 + x75 + x82 + x84  = 0
 LinkXY#29:       - x9 + x65 + x71 + x77 + x81 + x86  = 0
 LinkXY#30:       - x10 + x66 + x73 + x79 + x83 + x85  = 0
 StartLimit#31:   x88 + x89 + x90 + x91 + x92 <= 1
 FlowCons#32:     x88 + x89 + x90 + x91 + x92 - x93 - x94 - x95 - x96 - x97
                   = 0
 PathCont#33:     x88 - x93 + x98 - x99 + x100 - x101 + x102 - x103 + x104
                  - x105  = 0
 PathCont#34:     x89 - x94 - x98 + x99 + x106 - x107 + x108 - x109 + x110
                  - x111  = 0
 PathCont#35:     x90 - x95 - x100 + x101 - x106 + x107 + x112 - x113 + x114
                  - x115  = 0
 PathCont#36:     x91 - x96 - x102 + x103 - x108 + x109 - x112 + x113 + x116
                  - x117  = 0
 PathCont#37:     x92 - x97 - x104 + x105 - x110 + x111 - x114 + x115 - x116
                  + x117  = 0
 LinkXY#38:       x88 + x89 + x90 + x91 + x92 - x118  = 0
 LinkXY#39:       - x11 + x93 + x99 + x101 + x103 + x105  = 0
 LinkXY#40:       - x12 + x94 + x98 + x107 + x109 + x111  = 0
 LinkXY#41:       - x13 + x95 + x100 + x106 + x113 + x115  = 0
 LinkXY#42:       - x14 + x96 + x102 + x108 + x112 + x117  = 0
 LinkXY#43:       - x15 + x97 + x104 + x110 + x114 + x116  = 0
 StartLimit#44:   x119 + x120 + x121 + x122 + x123 <= 1
 FlowCons#45:     x119 + x120 + x121 + x122 + x123 - x124 - x125 - x126 - x127
                  - x128  = 0
 PathCont#46:     x119 - x124 + x129 - x130 + x131 - x132 + x133 - x134 + x135
                  - x136  = 0
 PathCont#47:     x120 - x125 - x129 + x130 + x137 - x138 + x139 - x140 + x141
                  - x142  = 0
 PathCont#48:     x121 - x126 - x131 + x132 - x137 + x138 + x143 - x144 + x145
                  - x146  = 0
 PathCont#49:     x122 - x127 - x133 + x134 - x139 + x140 - x143 + x144 + x147
                  - x148  = 0
 PathCont#50:     x123 - x128 - x135 + x136 - x141 + x142 - x145 + x146 - x147
                  + x148  = 0
 LinkXY#51:       x119 + x120 + x121 + x122 + x123 - x149  = 0
 LinkXY#52:       - x16 + x124 + x130 + x132 + x134 + x136  = 0
 LinkXY#53:       - x17 + x125 + x129 + x138 + x140 + x142  = 0
 LinkXY#54:       - x18 + x126 + x131 + x137 + x144 + x146  = 0
 LinkXY#55:       - x19 + x127 + x133 + x139 + x143 + x148  = 0
 LinkXY#56:       - x20 + x128 + x135 + x141 + x145 + x147  = 0
 StartLimit#57:   x150 + x151 + x152 + x153 + x154 <= 1
 FlowCons#58:     x150 + x151 + x152 + x153 + x154 - x155 - x156 - x157 - x158
                  - x159  = 0
 PathCont#59:     x150 - x155 + x160 - x161 + x162 - x163 + x164 - x165 + x166
                  - x167  = 0
 PathCont#60:     x151 - x156 - x160 + x161 + x168 - x169 + x170 - x171 + x172
                  - x173  = 0
 PathCont#61:     x152 - x157 - x162 + x163 - x168 + x169 + x174 - x175 + x176
                  - x177  = 0
 PathCont#62:     x153 - x158 - x164 + x165 - x170 + x171 - x174 + x175 + x178
                  - x179  = 0
 PathCont#63:     x154 - x159 - x166 + x167 - x172 + x173 - x176 + x177 - x178
                  + x179  = 0
 LinkXY#64:       x150 + x151 + x152 + x153 + x154 - x180  = 0
 LinkXY#65:       - x21 + x155 + x161 + x163 + x165 + x167  = 0
 LinkXY#66:       - x22 + x156 + x160 + x169 + x171 + x173  = 0
 LinkXY#67:       - x23 + x157 + x162 + x168 + x175 + x177  = 0
 LinkXY#68:       - x24 + x158 + x164 + x170 + x174 + x179  = 0
 LinkXY#69:       - x25 + x159 + x166 + x172 + x176 + x178  = 0
 StartTime#70:    x181  = 0
 MTZ#71:          - 2000 x26 - x181 + x182 >= -1997.5
 MTZ#72:          - 2000 x27 - x181 + x183 >= -1995
 MTZ#73:          - 2000 x28 - x181 + x184 >= -1992.5
 MTZ#74:          - 2000 x29 - x181 + x185 >= -1990
 MTZ#75:          - 2000 x30 - x181 + x186 >= -1987.5
 MaxT#76:         x181 <= 500
 MTZ#77:          - 2000 x31 + x181 - x182 >= -1992.5
 MTZ#78:          - 2000 x37 - x182 + x183 >= -1992.5
 MTZ#79:          - 2000 x39 - x182 + x184 >= -1990
 MTZ#80:          - 2000 x41 - x182 + x185 >= -1987.5
 MTZ#81:          - 2000 x43 - x182 + x186 >= -1985
 MaxT#82:         x182 <= 500
 _Early#83:       x182 >= 0
 Due#84:          2000 x1 + x182 <= 2500
 MTZ#85:          - 2000 x32 + x181 - x183 >= -1990
 MTZ#86:          - 2000 x36 + x182 - x183 >= -1992.5
 MTZ#87:          - 2000 x45 - x183 + x184 >= -1992.5
 MTZ#88:          - 2000 x47 - x183 + x185 >= -1990
 MTZ#89:          - 2000 x49 - x183 + x186 >= -1987.5
 MaxT#90:         x183 <= 500
 _Early#91:       x183 >= 0
 Due#92:          2000 x2 + x183 <= 2500
 MTZ#93:          - 2000 x33 + x181 - x184 >= -1987.5
 MTZ#94:          - 2000 x38 + x182 - x184 >= -1990
 MTZ#95:          - 2000 x44 + x183 - x184 >= -1992.5
 MTZ#96:          - 2000 x51 - x184 + x185 >= -1992.5
 MTZ#97:          - 2000 x53 - x184 + x186 >= -1990
 MaxT#98:         x184 <= 500
 _Early#99:       x184 >= 0
 Due#100:         2000 x3 + x184 <= 2500
 MTZ#101:         - 2000 x34 + x181 - x185 >= -1985
 MTZ#102:         - 2000 x40 + x182 - x185 >= -1987.5
 MTZ#103:         - 2000 x46 + x183 - x185 >= -1990
 MTZ#104:         - 2000 x50 + x184 - x185 >= -1992.5
 MTZ#105:         - 2000 x55 - x185 + x186 >= -1992.5
 MaxT#106:        x185 <= 500
 _Early#107:      x185 >= 0
 Due#108:         2000 x4 + x185 <= 2500
 MTZ#109:         - 2000 x35 + x181 - x186 >= -1982.5
 MTZ#110:         - 2000 x42 + x182 - x186 >= -1985
 MTZ#111:         - 2000 x48 + x183 - x186 >= -1987.5
 MTZ#112:         - 2000 x52 + x184 - x186 >= -1990
 MTZ#113:         - 2000 x54 + x185 - x186 >= -1992.5
 MaxT#114:        x186 <= 500
 _Early#115:      x186 >= 0
 Due#116:         2000 x5 + x186 <= 2500
 StartTime#117:   x187  = 0
 MTZ#118:         - 2000 x57 - x187 + x188 >= -1997.5
 MTZ#119:         - 2000 x58 - x187 + x189 >= -1995
 MTZ#120:         - 2000 x59 - x187 + x190 >= -1992.5
 MTZ#121:         - 2000 x60 - x187 + x191 >= -1990
 MTZ#122:         - 2000 x61 - x187 + x192 >= -1987.5
 MaxT#123:        x187 <= 500
 MTZ#124:         - 2000 x62 + x187 - x188 >= -1992.5
 MTZ#125:         - 2000 x68 - x188 + x189 >= -1992.5
 MTZ#126:         - 2000 x70 - x188 + x190 >= -1990
 MTZ#127:         - 2000 x72 - x188 + x191 >= -1987.5
 MTZ#128:         - 2000 x74 - x188 + x192 >= -1985
 MaxT#129:        x188 <= 500
 _Early#130:      x188 >= 0
 Due#131:         2000 x6 + x188 <= 2500
 MTZ#132:         - 2000 x63 + x187 - x189 >= -1990
 MTZ#133:         - 2000 x67 + x188 - x189 >= -1992.5
 MTZ#134:         - 2000 x76 - x189 + x190 >= -1992.5
 MTZ#135:         - 2000 x78 - x189 + x191 >= -1990
 MTZ#136:         - 2000 x80 - x189 + x192 >= -1987.5
 MaxT#137:        x189 <= 500
 _Early#138:      x189 >= 0
 Due#139:         2000 x7 + x189 <= 2500
 MTZ#140:         - 2000 x64 + x187 - x190 >= -1987.5
 MTZ#141:         - 2000 x69 + x188 - x190 >= -1990
 MTZ#142:         - 2000 x75 + x189 - x190 >= -1992.5
 MTZ#143:         - 2000 x82 - x190 + x191 >= -1992.5
 MTZ#144:         - 2000 x84 - x190 + x192 >= -1990
 MaxT#145:        x190 <= 500
 _Early#146:      x190 >= 0
 Due#147:         2000 x8 + x190 <= 2500
 MTZ#148:         - 2000 x65 + x187 - x191 >= -1985
 MTZ#149:         - 2000 x71 + x188 - x191 >= -1987.5
 MTZ#150:         - 2000 x77 + x189 - x191 >= -1990
 MTZ#151:         - 2000 x81 + x190 - x191 >= -1992.5
 MTZ#152:         - 2000 x86 - x191 + x192 >= -1992.5
 MaxT#153:        x191 <= 500
 _Early#154:      x191 >= 0
 Due#155:         2000 x9 + x191 <= 2500
 MTZ#156:         - 2000 x66 + x187 - x192 >= -1982.5
 MTZ#157:         - 2000 x73 + x188 - x192 >= -1985
 MTZ#158:         - 2000 x79 + x189 - x192 >= -1987.5
 MTZ#159:         - 2000 x83 + x190 - x192 >= -1990
 MTZ#160:         - 2000 x85 + x191 - x192 >= -1992.5
 MaxT#161:        x192 <= 500
 _Early#162:      x192 >= 0
 Due#163:         2000 x10 + x192 <= 2500
 StartTime#164:   x193  = 0
 MTZ#165:         - 2000 x88 - x193 + x194 >= -1997.5
 MTZ#166:         - 2000 x89 - x193 + x195 >= -1995
 MTZ#167:         - 2000 x90 - x193 + x196 >= -1992.5
 MTZ#168:         - 2000 x91 - x193 + x197 >= -1990
 MTZ#169:         - 2000 x92 - x193 + x198 >= -1987.5
 MaxT#170:        x193 <= 500
 MTZ#171:         - 2000 x93 + x193 - x194 >= -1992.5
 MTZ#172:         - 2000 x99 - x194 + x195 >= -1992.5
 MTZ#173:         - 2000 x101 - x194 + x196 >= -1990
 MTZ#174:         - 2000 x103 - x194 + x197 >= -1987.5
 MTZ#175:         - 2000 x105 - x194 + x198 >= -1985
 MaxT#176:        x194 <= 500
 _Early#177:      x194 >= 0
 Due#178:         2000 x11 + x194 <= 2500
 MTZ#179:         - 2000 x94 + x193 - x195 >= -1990
 MTZ#180:         - 2000 x98 + x194 - x195 >= -1992.5
 MTZ#181:         - 2000 x107 - x195 + x196 >= -1992.5
 MTZ#182:         - 2000 x109 - x195 + x197 >= -1990
 MTZ#183:         - 2000 x111 - x195 + x198 >= -1987.5
 MaxT#184:        x195 <= 500
 _Early#185:      x195 >= 0
 Due#186:         2000 x12 + x195 <= 2500
 MTZ#187:         - 2000 x95 + x193 - x196 >= -1987.5
 MTZ#188:         - 2000 x100 + x194 - x196 >= -1990
 MTZ#189:         - 2000 x106 + x195 - x196 >= -1992.5
 MTZ#190:         - 2000 x113 - x196 + x197 >= -1992.5
 MTZ#191:         - 2000 x115 - x196 + x198 >= -1990
 MaxT#192:        x196 <= 500
 _Early#193:      x196 >= 0
 Due#194:         2000 x13 + x196 <= 2500
 MTZ#195:         - 2000 x96 + x193 - x197 >= -1985
 MTZ#196:         - 2000 x102 + x194 - x197 >= -1987.5
 MTZ#197:         - 2000 x108 + x195 - x197 >= -1990
 MTZ#198:         - 2000 x112 + x196 - x197 >= -1992.5
 MTZ#199:         - 2000 x117 - x197 + x198 >= -1992.5
 MaxT#200:        x197 <= 500
 _Early#201:      x197 >= 0
 Due#202:         2000 x14 + x197 <= 2500
 MTZ#203:         - 2000 x97 + x193 - x198 >= -1982.5
 MTZ#204:         - 2000 x104 + x194 - x198 >= -1985
 MTZ#205:         - 2000 x110 + x195 - x198 >= -1987.5
 MTZ#206:         - 2000 x114 + x196 - x198 >= -1990
 MTZ#207:         - 2000 x116 + x197 - x198 >= -1992.5
 MaxT#208:        x198 <= 500
 _Early#209:      x198 >= 0
 Due#210:         2000 x15 + x198 <= 2500
 StartTime#211:   x199  = 0
 MTZ#212:         - 2000 x119 - x199 + x200 >= -1997.5
 MTZ#213:         - 2000 x120 - x199 + x201 >= -1995
 MTZ#214:         - 2000 x121 - x199 + x202 >= -1992.5
 MTZ#215:         - 2000 x122 - x199 + x203 >= -1990
 MTZ#216:         - 2000 x123 - x199 + x204 >= -1987.5
 MaxT#217:        x199 <= 500
 MTZ#218:         - 2000 x124 + x199 - x200 >= -1992.5
 MTZ#219:         - 2000 x130 - x200 + x201 >= -1992.5
 MTZ#220:         - 2000 x132 - x200 + x202 >= -1990
 MTZ#221:         - 2000 x134 - x200 + x203 >= -1987.5
 MTZ#222:         - 2000 x136 - x200 + x204 >= -1985
 MaxT#223:        x200 <= 500
 _Early#224:      x200 >= 0
 Due#225:         2000 x16 + x200 <= 2500
 MTZ#226:         - 2000 x125 + x199 - x201 >= -1990
 MTZ#227:         - 2000 x129 + x200 - x201 >= -1992.5
 MTZ#228:         - 2000 x138 - x201 + x202 >= -1992.5
 MTZ#229:         - 2000 x140 - x201 + x203 >= -1990
 MTZ#230:         - 2000 x142 - x201 + x204 >= -1987.5
 MaxT#231:        x201 <= 500
 _Early#232:      x201 >= 0
 Due#233:         2000 x17 + x201 <= 2500
 MTZ#234:         - 2000 x126 + x199 - x202 >= -1987.5
 MTZ#235:         - 2000 x131 + x200 - x202 >= -1990
 MTZ#236:         - 2000 x137 + x201 - x202 >= -1992.5
 MTZ#237:         - 2000 x144 - x202 + x203 >= -1992.5
 MTZ#238:         - 2000 x146 - x202 + x204 >= -1990
 MaxT#239:        x202 <= 500
 _Early#240:      x202 >= 0
 Due#241:         2000 x18 + x202 <= 2500
 MTZ#242:         - 2000 x127 + x199 - x203 >= -1985
 MTZ#243:         - 2000 x133 + x200 - x203 >= -1987.5
 MTZ#244:         - 2000 x139 + x201 - x203 >= -1990
 MTZ#245:         - 2000 x143 + x202 - x203 >= -1992.5
 MTZ#246:         - 2000 x148 - x203 + x204 >= -1992.5
 MaxT#247:        x203 <= 500
 _Early#248:      x203 >= 0
 Due#249:         2000 x19 + x203 <= 2500
 MTZ#250:         - 2000 x128 + x199 - x204 >= -1982.5
 MTZ#251:         - 2000 x135 + x200 - x204 >= -1985
 MTZ#252:         - 2000 x141 + x201 - x204 >= -1987.5
 MTZ#253:         - 2000 x145 + x202 - x204 >= -1990
 MTZ#254:         - 2000 x147 + x203 - x204 >= -1992.5
 MaxT#255:        x204 <= 500
 _Early#256:      x204 >= 0
 Due#257:         2000 x20 + x204 <= 2500
 StartTime#258:   x205  = 0
 MTZ#259:         - 2000 x150 - x205 + x206 >= -1997.5
 MTZ#260:         - 2000 x151 - x205 + x207 >= -1995
 MTZ#261:         - 2000 x152 - x205 + x208 >= -1992.5
 MTZ#262:         - 2000 x153 - x205 + x209 >= -1990
 MTZ#263:         - 2000 x154 - x205 + x210 >= -1987.5
 MaxT#264:        x205 <= 500
 MTZ#265:         - 2000 x155 + x205 - x206 >= -1992.5
 MTZ#266:         - 2000 x161 - x206 + x207 >= -1992.5
 MTZ#267:         - 2000 x163 - x206 + x208 >= -1990
 MTZ#268:         - 2000 x165 - x206 + x209 >= -1987.5
 MTZ#269:         - 2000 x167 - x206 + x210 >= -1985
 MaxT#270:        x206 <= 500
 _Early#271:      x206 >= 0
 Due#272:         2000 x21 + x206 <= 2500
 MTZ#273:         - 2000 x156 + x205 - x207 >= -1990
 MTZ#274:         - 2000 x160 + x206 - x207 >= -1992.5
 MTZ#275:         - 2000 x169 - x207 + x208 >= -1992.5
 MTZ#276:         - 2000 x171 - x207 + x209 >= -1990
 MTZ#277:         - 2000 x173 - x207 + x210 >= -1987.5
 MaxT#278:        x207 <= 500
 _Early#279:      x207 >= 0
 Due#280:         2000 x22 + x207 <= 2500
 MTZ#281:         - 2000 x157 + x205 - x208 >= -1987.5
 MTZ#282:         - 2000 x162 + x206 - x208 >= -1990
 MTZ#283:         - 2000 x168 + x207 - x208 >= -1992.5
 MTZ#284:         - 2000 x175 - x208 + x209 >= -1992.5
 MTZ#285:         - 2000 x177 - x208 + x210 >= -1990
 MaxT#286:        x208 <= 500
 _Early#287:      x208 >= 0
 Due#288:         2000 x23 + x208 <= 2500
 MTZ#289:         - 2000 x158 + x205 - x209 >= -1985
 MTZ#290:         - 2000 x164 + x206 - x209 >= -1987.5
 MTZ#291:         - 2000 x170 + x207 - x209 >= -1990
 MTZ#292:         - 2000 x174 + x208 - x209 >= -1992.5
 MTZ#293:         - 2000 x179 - x209 + x210 >= -1992.5
 MaxT#294:        x209 <= 500
 _Early#295:      x209 >= 0
 Due#296:         2000 x24 + x209 <= 2500
 MTZ#297:         - 2000 x159 + x205 - x210 >= -1982.5
 MTZ#298:         - 2000 x166 + x206 - x210 >= -1985
 MTZ#299:         - 2000 x172 + x207 - x210 >= -1987.5
 MTZ#300:         - 2000 x176 + x208 - x210 >= -1990
 MTZ#301:         - 2000 x178 + x209 - x210 >= -1992.5
 MaxT#302:        x210 <= 500
 _Early#303:      x210 >= 0
 Due#304:         2000 x25 + x210 <= 2500
 Range#305:       x211  = 0
 Range#306:       x212  = 0
 Range#307:       x213  = 0
 Range#308:       x214  = 0
 Range#309:       x215  = 0
 Range#310:       x216  = 0
 Range#311:       x217  = 0
 Range#312:       x218  = 0
 Range#313:       x219  = 0
 Range#314:       x220  = 0
 Range#315:       x221  = 0
 Range#316:       x222  = 0
 Range#317:       x223  = 0
 Range#318:       x224  = 0
 Range#319:       x225  = 0
 Range#320:       x226  = 0
 Range#321:       x227  = 0
 Range#322:       x228  = 0
 Range#323:       x229  = 0
 Range#324:       x230  = 0
 Range#325:       x231  = 0
 Range#326:       x232  = 0
 Range#327:       x233  = 0
 Range#328:       x234  = 0
 Range#329:       x235  = 0
 Range#330:       x236  = 0
 Range#331:       x237  = 0
 Range#332:       x238  = 0
 Range#333:       x239  = 0
 Range#334:       x240  = 0
 Range#335:       x241  = 0
 Range#336:       x242  = 0
 Range#337:       x243  = 0
 Range#338:       x244  = 0
 Range#339:       x245  = 0
 Range#340:       x246  = 0
 Range#341:       x247  = 0
 Range#342:       x248  = 0
 Range#343:       x249  = 0
 Range#344:       x250  = 0
 Range#345:       x251  = 0
 Range#346:       x252  = 0
 Range#347:       x253  = 0
 Range#348:       x254  = 0
 Range#349:       x255  = 0
 Range#350:       x256  = 0
 Range#351:       x257  = 0
 Range#352:       x258  = 0
 Range#353:       x259  = 0
 Range#354:       x260  = 0
 Range#355:       x261  = 0
 Range#356:       x262  = 0
 Range#357:       x263  = 0
 Range#358:       x264  = 0
 Range#359:       x265  = 0
 Range#360:       x266  = 0
 Range#361:       x267  = 0
 Range#362:       x268  = 0
 Range#363:       x269  = 0
 Range#364:       x270  = 0
 Range#365:       x271  = 0
 Range#366:       x272  = 0
 Range#367:       x273  = 0
 Range#368:       x274  = 0
 Range#369:       x275  = 0
 Range#370:       x276  = 0
 Range#371:       x277  = 0
 Range#372:       x278  = 0
 Range#373:       x279  = 0
 Range#374:       x280  = 0
 Range#375:       x281  = 0
 Range#376:       x282  = 0
 Range#377:       x283  = 0
 Range#378:       x284  = 0
 Range#379:       x285  = 0
 Range#380:       x286  = 0
 Range#381:       x287  = 0
 Range#382:       x288  = 0
 Range#383:       x289  = 0
 Range#384:       x290  = 0
 Range#385:       x291  = 0
 Range#386:       x292  = 0
 Range#387:       x293  = 0
 Range#388:       x294  = 0
 Range#389:       x295  = 0
 Range#390:       x296  = 0
 Range#391:       x297  = 0
 Range#392:       x298  = 0
 Range#393:       x299  = 0
 Range#394:       x300  = 0
 Range#395:       x301  = 0
 Range#396:       x302  = 0
 Range#397:       x303  = 0
 Range#398:       x304  = 0
 Range#399:       x305  = 0
 Range#400:       x306  = 0
 Range#401:       x307  = 0
 Range#402:       x308  = 0
 Range#403:       x309  = 0
 Range#404:       x310  = 0
 RadioExistI#405: x311 + x312 + x313 + x314 + x315 <= 1
 RadioExistJ#406: - x1 - x6 - x11 - x16 - x21 + x311 + x312 + x313 + x314
                  + x315 <= 0
 RadioExistI#407: x211 + x231 + x251 + x271 + x291 <= 1
 RadioExistJ#408: - x2 - x7 - x12 - x17 - x22 + x211 + x231 + x251 + x271
                  + x291 <= 0
 RadioExistI#409: x212 + x232 + x252 + x272 + x292 <= 1
 RadioExistJ#410: - x3 - x8 - x13 - x18 - x23 + x212 + x232 + x252 + x272
                  + x292 <= 0
 RadioExistI#411: x213 + x233 + x253 + x273 + x293 <= 1
 RadioExistJ#412: - x4 - x9 - x14 - x19 - x24 + x213 + x233 + x253 + x273
                  + x293 <= 0
 RadioExistI#413: x214 + x234 + x254 + x274 + x294 <= 1
 RadioExistJ#414: - x5 - x10 - x15 - x20 - x25 + x214 + x234 + x254 + x274
                  + x294 <= 0
 RadioExistI#415: - x1 - x6 - x11 - x16 - x21 + x316 + x317 + x318 + x319
                  + x320 <= 0
 RadioExistJ#416: x316 + x317 + x318 + x319 + x320 <= 1
 RadioExistI#417: - x1 - x6 - x11 - x16 - x21 + x321 + x322 + x323 + x324
                  + x325 <= 0
 RadioExistJ#418: - x2 - x7 - x12 - x17 - x22 + x321 + x322 + x323 + x324
                  + x325 <= 0
 RadioExistI#419: - x1 - x6 - x11 - x16 - x21 + x215 + x235 + x255 + x275
                  + x295 <= 0
 RadioExistJ#420: - x3 - x8 - x13 - x18 - x23 + x215 + x235 + x255 + x275
                  + x295 <= 0
 RadioExistI#421: - x1 - x6 - x11 - x16 - x21 + x216 + x236 + x256 + x276
                  + x296 <= 0
 RadioExistJ#422: - x4 - x9 - x14 - x19 - x24 + x216 + x236 + x256 + x276
                  + x296 <= 0
 RadioExistI#423: - x1 - x6 - x11 - x16 - x21 + x217 + x237 + x257 + x277
                  + x297 <= 0
 RadioExistJ#424: - x5 - x10 - x15 - x20 - x25 + x217 + x237 + x257 + x277
                  + x297 <= 0
 RadioExistI#425: - x2 - x7 - x12 - x17 - x22 + x218 + x238 + x258 + x278
                  + x298 <= 0
 RadioExistJ#426: x218 + x238 + x258 + x278 + x298 <= 1
 RadioExistI#427: - x2 - x7 - x12 - x17 - x22 + x326 + x327 + x328 + x329
                  + x330 <= 0
 RadioExistJ#428: - x1 - x6 - x11 - x16 - x21 + x326 + x327 + x328 + x329
                  + x330 <= 0
 RadioExistI#429: - x2 - x7 - x12 - x17 - x22 + x331 + x332 + x333 + x334
                  + x335 <= 0
 RadioExistJ#430: - x3 - x8 - x13 - x18 - x23 + x331 + x332 + x333 + x334
                  + x335 <= 0
 RadioExistI#431: - x2 - x7 - x12 - x17 - x22 + x219 + x239 + x259 + x279
                  + x299 <= 0
 RadioExistJ#432: - x4 - x9 - x14 - x19 - x24 + x219 + x239 + x259 + x279
                  + x299 <= 0
 RadioExistI#433: - x2 - x7 - x12 - x17 - x22 + x220 + x240 + x260 + x280
                  + x300 <= 0
 RadioExistJ#434: - x5 - x10 - x15 - x20 - x25 + x220 + x240 + x260 + x280
                  + x300 <= 0
 RadioExistI#435: - x3 - x8 - x13 - x18 - x23 + x221 + x241 + x261 + x281
                  + x301 <= 0
 RadioExistJ#436: x221 + x241 + x261 + x281 + x301 <= 1
 RadioExistI#437: - x3 - x8 - x13 - x18 - x23 + x222 + x242 + x262 + x282
                  + x302 <= 0
 RadioExistJ#438: - x1 - x6 - x11 - x16 - x21 + x222 + x242 + x262 + x282
                  + x302 <= 0
 RadioExistI#439: - x3 - x8 - x13 - x18 - x23 + x336 + x337 + x338 + x339
                  + x340 <= 0
 RadioExistJ#440: - x2 - x7 - x12 - x17 - x22 + x336 + x337 + x338 + x339
                  + x340 <= 0
 RadioExistI#441: - x3 - x8 - x13 - x18 - x23 + x341 + x342 + x343 + x344
                  + x345 <= 0
 RadioExistJ#442: - x4 - x9 - x14 - x19 - x24 + x341 + x342 + x343 + x344
                  + x345 <= 0
 RadioExistI#443: - x3 - x8 - x13 - x18 - x23 + x223 + x243 + x263 + x283
                  + x303 <= 0
 RadioExistJ#444: - x5 - x10 - x15 - x20 - x25 + x223 + x243 + x263 + x283
                  + x303 <= 0
 RadioExistI#445: - x4 - x9 - x14 - x19 - x24 + x224 + x244 + x264 + x284
                  + x304 <= 0
 RadioExistJ#446: x224 + x244 + x264 + x284 + x304 <= 1
 RadioExistI#447: - x4 - x9 - x14 - x19 - x24 + x225 + x245 + x265 + x285
                  + x305 <= 0
 RadioExistJ#448: - x1 - x6 - x11 - x16 - x21 + x225 + x245 + x265 + x285
                  + x305 <= 0
 RadioExistI#449: - x4 - x9 - x14 - x19 - x24 + x226 + x246 + x266 + x286
                  + x306 <= 0
 RadioExistJ#450: - x2 - x7 - x12 - x17 - x22 + x226 + x246 + x266 + x286
                  + x306 <= 0
 RadioExistI#451: - x4 - x9 - x14 - x19 - x24 + x346 + x347 + x348 + x349
                  + x350 <= 0
 RadioExistJ#452: - x3 - x8 - x13 - x18 - x23 + x346 + x347 + x348 + x349
                  + x350 <= 0
 RadioExistI#453: - x4 - x9 - x14 - x19 - x24 + x351 + x352 + x353 + x354
                  + x355 <= 0
 RadioExistJ#454: - x5 - x10 - x15 - x20 - x25 + x351 + x352 + x353 + x354
                  + x355 <= 0
 RadioExistI#455: - x5 - x10 - x15 - x20 - x25 + x227 + x247 + x267 + x287
                  + x307 <= 0
 RadioExistJ#456: x227 + x247 + x267 + x287 + x307 <= 1
 RadioExistI#457: - x5 - x10 - x15 - x20 - x25 + x228 + x248 + x268 + x288
                  + x308 <= 0
 RadioExistJ#458: - x1 - x6 - x11 - x16 - x21 + x228 + x248 + x268 + x288
                  + x308 <= 0
 RadioExistI#459: - x5 - x10 - x15 - x20 - x25 + x229 + x249 + x269 + x289
                  + x309 <= 0
 RadioExistJ#460: - x2 - x7 - x12 - x17 - x22 + x229 + x249 + x269 + x289
                  + x309 <= 0
 RadioExistI#461: - x5 - x10 - x15 - x20 - x25 + x230 + x250 + x270 + x290
                  + x310 <= 0
 RadioExistJ#462: - x3 - x8 - x13 - x18 - x23 + x230 + x250 + x270 + x290
                  + x310 <= 0
 RadioExistI#463: - x5 - x10 - x15 - x20 - x25 + x356 + x357 + x358 + x359
                  + x360 <= 0
 RadioExistJ#464: - x4 - x9 - x14 - x19 - x24 + x356 + x357 + x358 + x359
                  + x360 <= 0
 SourceBal#465:   - x1 - x2 - x3 - x4 - x5 - x6 - x7 - x8 - x9 - x10 - x11
                  - x12 - x13 - x14 - x15 - x16 - x17 - x18 - x19 - x20 - x21
                  - x22 - x23 - x24 - x25 + x361 - x362 + x363 - x364 + x365
                  - x366 + x367 - x368 + x369 - x370  = 0
 NodeBal#466:     - x1 - x6 - x11 - x16 - x21 + x361 - x362 + x371 - x372
                  + x373 - x374 + x375 - x376 + x377 - x378  = 0
 NodeBal#467:     - x2 - x7 - x12 - x17 - x22 + x363 - x364 - x371 + x372
                  + x379 - x380 + x381 - x382 + x383 - x384  = 0
 NodeBal#468:     - x3 - x8 - x13 - x18 - x23 + x365 - x366 - x373 + x374
                  - x379 + x380 + x385 - x386 + x387 - x388  = 0
 NodeBal#469:     - x4 - x9 - x14 - x19 - x24 + x367 - x368 - x375 + x376
                  - x381 + x382 - x385 + x386 + x389 - x390  = 0
 NodeBal#470:     - x5 - x10 - x15 - x20 - x25 + x369 - x370 - x377 + x378
                  - x383 + x384 - x387 + x388 - x389 + x390  = 0
 Cap#471:         - 6 x391 - 6 x392 - 6 x393 - 6 x394 - 6 x395 + x396 <= 0
 Cap#472:         - 6 x311 - 6 x312 - 6 x313 - 6 x314 - 6 x315 + x361 <= 0
 Cap#473:         - 6 x211 - 6 x231 - 6 x251 - 6 x271 - 6 x291 + x363 <= 0
 Cap#474:         - 6 x212 - 6 x232 - 6 x252 - 6 x272 - 6 x292 + x365 <= 0
 Cap#475:         - 6 x213 - 6 x233 - 6 x253 - 6 x273 - 6 x293 + x367 <= 0
 Cap#476:         - 6 x214 - 6 x234 - 6 x254 - 6 x274 - 6 x294 + x369 <= 0
 Cap#477:         - 6 x316 - 6 x317 - 6 x318 - 6 x319 - 6 x320 + x362 <= 0
 Cap#478:         - 6 x397 - 6 x398 - 6 x399 - 6 x400 - 6 x401 + x402 <= 0
 Cap#479:         - 6 x321 - 6 x322 - 6 x323 - 6 x324 - 6 x325 + x372 <= 0
 Cap#480:         - 6 x215 - 6 x235 - 6 x255 - 6 x275 - 6 x295 + x374 <= 0
 Cap#481:         - 6 x216 - 6 x236 - 6 x256 - 6 x276 - 6 x296 + x376 <= 0
 Cap#482:         - 6 x217 - 6 x237 - 6 x257 - 6 x277 - 6 x297 + x378 <= 0
 Cap#483:         - 6 x218 - 6 x238 - 6 x258 - 6 x278 - 6 x298 + x364 <= 0
 Cap#484:         - 6 x326 - 6 x327 - 6 x328 - 6 x329 - 6 x330 + x371 <= 0
 Cap#485:         - 6 x403 - 6 x404 - 6 x405 - 6 x406 - 6 x407 + x408 <= 0
 Cap#486:         - 6 x331 - 6 x332 - 6 x333 - 6 x334 - 6 x335 + x380 <= 0
 Cap#487:         - 6 x219 - 6 x239 - 6 x259 - 6 x279 - 6 x299 + x382 <= 0
 Cap#488:         - 6 x220 - 6 x240 - 6 x260 - 6 x280 - 6 x300 + x384 <= 0
 Cap#489:         - 6 x221 - 6 x241 - 6 x261 - 6 x281 - 6 x301 + x366 <= 0
 Cap#490:         - 6 x222 - 6 x242 - 6 x262 - 6 x282 - 6 x302 + x373 <= 0
 Cap#491:         - 6 x336 - 6 x337 - 6 x338 - 6 x339 - 6 x340 + x379 <= 0
 Cap#492:         - 6 x409 - 6 x410 - 6 x411 - 6 x412 - 6 x413 + x414 <= 0
 Cap#493:         - 6 x341 - 6 x342 - 6 x343 - 6 x344 - 6 x345 + x386 <= 0
 Cap#494:         - 6 x223 - 6 x243 - 6 x263 - 6 x283 - 6 x303 + x388 <= 0
 Cap#495:         - 6 x224 - 6 x244 - 6 x264 - 6 x284 - 6 x304 + x368 <= 0
 Cap#496:         - 6 x225 - 6 x245 - 6 x265 - 6 x285 - 6 x305 + x375 <= 0
 Cap#497:         - 6 x226 - 6 x246 - 6 x266 - 6 x286 - 6 x306 + x381 <= 0
 Cap#498:         - 6 x346 - 6 x347 - 6 x348 - 6 x349 - 6 x350 + x385 <= 0
 Cap#499:         - 6 x415 - 6 x416 - 6 x417 - 6 x418 - 6 x419 + x420 <= 0
 Cap#500:         - 6 x351 - 6 x352 - 6 x353 - 6 x354 - 6 x355 + x390 <= 0
 Cap#501:         - 6 x227 - 6 x247 - 6 x267 - 6 x287 - 6 x307 + x370 <= 0
 Cap#502:         - 6 x228 - 6 x248 - 6 x268 - 6 x288 - 6 x308 + x377 <= 0
 Cap#503:         - 6 x229 - 6 x249 - 6 x269 - 6 x289 - 6 x309 + x383 <= 0
 Cap#504:         - 6 x230 - 6 x250 - 6 x270 - 6 x290 - 6 x310 + x387 <= 0
 Cap#505:         - 6 x356 - 6 x357 - 6 x358 - 6 x359 - 6 x360 + x389 <= 0
 Cap#506:         - 6 x421 - 6 x422 - 6 x423 - 6 x424 - 6 x425 + x426 <= 0
 ForceLast#507:   x5 + x10 + x15 + x20 + x25  = 1
Bounds
 0 <= x1 <= 1
 0 <= x2 <= 1
 0 <= x3 <= 1
 0 <= x4 <= 1
 0 <= x5 <= 1
 0 <= x6 <= 1
 0 <= x7 <= 1
 0 <= x8 <= 1
 0 <= x9 <= 1
 0 <= x10 <= 1
 0 <= x11 <= 1
 0 <= x12 <= 1
 0 <= x13 <= 1
 0 <= x14 <= 1
 0 <= x15 <= 1
 0 <= x16 <= 1
 0 <= x17 <= 1
 0 <= x18 <= 1
 0 <= x19 <= 1
 0 <= x20 <= 1
 0 <= x21 <= 1
 0 <= x22 <= 1
 0 <= x23 <= 1
 0 <= x24 <= 1
 0 <= x25 <= 1
 0 <= x26 <= 1
 0 <= x27 <= 1
 0 <= x28 <= 1
 0 <= x29 <= 1
 0 <= x30 <= 1
 0 <= x31 <= 1
 0 <= x32 <= 1
 0 <= x33 <= 1
 0 <= x34 <= 1
 0 <= x35 <= 1
 0 <= x36 <= 1
 0 <= x37 <= 1
 0 <= x38 <= 1
 0 <= x39 <= 1
 0 <= x40 <= 1
 0 <= x41 <= 1
 0 <= x42 <= 1
 0 <= x43 <= 1
 0 <= x44 <= 1
 0 <= x45 <= 1
 0 <= x46 <= 1
 0 <= x47 <= 1
 0 <= x48 <= 1
 0 <= x49 <= 1
 0 <= x50 <= 1
 0 <= x51 <= 1
 0 <= x52 <= 1
 0 <= x53 <= 1
 0 <= x54 <= 1
 0 <= x55 <= 1
 0 <= x56 <= 1
 0 <= x57 <= 1
 0 <= x58 <= 1
 0 <= x59 <= 1
 0 <= x60 <= 1
 0 <= x61 <= 1
 0 <= x62 <= 1
 0 <= x63 <= 1
 0 <= x64 <= 1
 0 <= x65 <= 1
 0 <= x66 <= 1
 0 <= x67 <= 1
 0 <= x68 <= 1
 0 <= x69 <= 1
 0 <= x70 <= 1
 0 <= x71 <= 1
 0 <= x72 <= 1
 0 <= x73 <= 1
 0 <= x74 <= 1
 0 <= x75 <= 1
 0 <= x76 <= 1
 0 <= x77 <= 1
 0 <= x78 <= 1
 0 <= x79 <= 1
 0 <= x80 <= 1
 0 <= x81 <= 1
 0 <= x82 <= 1
 0 <= x83 <= 1
 0 <= x84 <= 1
 0 <= x85 <= 1
 0 <= x86 <= 1
 0 <= x87 <= 1
 0 <= x88 <= 1
 0 <= x89 <= 1
 0 <= x90 <= 1
 0 <= x91 <= 1
 0 <= x92 <= 1
 0 <= x93 <= 1
 0 <= x94 <= 1
 0 <= x95 <= 1
 0 <= x96 <= 1
 0 <= x97 <= 1
 0 <= x98 <= 1
 0 <= x99 <= 1
 0 <= x100 <= 1
 0 <= x101 <= 1
 0 <= x102 <= 1
 0 <= x103 <= 1
 0 <= x104 <= 1
 0 <= x105 <= 1
 0 <= x106 <= 1
 0 <= x107 <= 1
 0 <= x108 <= 1
 0 <= x109 <= 1
 0 <= x110 <= 1
 0 <= x111 <= 1
 0 <= x112 <= 1
 0 <= x113 <= 1
 0 <= x114 <= 1
 0 <= x115 <= 1
 0 <= x116 <= 1
 0 <= x117 <= 1
 0 <= x118 <= 1
 0 <= x119 <= 1
 0 <= x120 <= 1
 0 <= x121 <= 1
 0 <= x122 <= 1
 0 <= x123 <= 1
 0 <= x124 <= 1
 0 <= x125 <= 1
 0 <= x126 <= 1
 0 <= x127 <= 1
 0 <= x128 <= 1
 0 <= x129 <= 1
 0 <= x130 <= 1
 0 <= x131 <= 1
 0 <= x132 <= 1
 0 <= x133 <= 1
 0 <= x134 <= 1
 0 <= x135 <= 1
 0 <= x136 <= 1
 0 <= x137 <= 1
 0 <= x138 <= 1
 0 <= x139 <= 1
 0 <= x140 <= 1
 0 <= x141 <= 1
 0 <= x142 <= 1
 0 <= x143 <= 1
 0 <= x144 <= 1
 0 <= x145 <= 1
 0 <= x146 <= 1
 0 <= x147 <= 1
 0 <= x148 <= 1
 0 <= x149 <= 1
 0 <= x150 <= 1
 0 <= x151 <= 1
 0 <= x152 <= 1
 0 <= x153 <= 1
 0 <= x154 <= 1
 0 <= x155 <= 1
 0 <= x156 <= 1
 0 <= x157 <= 1
 0 <= x158 <= 1
 0 <= x159 <= 1
 0 <= x160 <= 1
 0 <= x161 <= 1
 0 <= x162 <= 1
 0 <= x163 <= 1
 0 <= x164 <= 1
 0 <= x165 <= 1
 0 <= x166 <= 1
 0 <= x167 <= 1
 0 <= x168 <= 1
 0 <= x169 <= 1
 0 <= x170 <= 1
 0 <= x171 <= 1
 0 <= x172 <= 1
 0 <= x173 <= 1
 0 <= x174 <= 1
 0 <= x175 <= 1
 0 <= x176 <= 1
 0 <= x177 <= 1
 0 <= x178 <= 1
 0 <= x179 <= 1
 0 <= x180 <= 1
 0 <= x181 <= 500
 0 <= x182 <= 500
 0 <= x183 <= 500
 0 <= x184 <= 500
 0 <= x185 <= 500
 0 <= x186 <= 500
 0 <= x187 <= 500
 0 <= x188 <= 500
 0 <= x189 <= 500
 0 <= x190 <= 500
 0 <= x191 <= 500
 0 <= x192 <= 500
 0 <= x193 <= 500
 0 <= x194 <= 500
 0 <= x195 <= 500
 0 <= x196 <= 500
 0 <= x197 <= 500
 0 <= x198 <= 500
 0 <= x199 <= 500
 0 <= x200 <= 500
 0 <= x201 <= 500
 0 <= x202 <= 500
 0 <= x203 <= 500
 0 <= x204 <= 500
 0 <= x205 <= 500
 0 <= x206 <= 500
 0 <= x207 <= 500
 0 <= x208 <= 500
 0 <= x209 <= 500
 0 <= x210 <= 500
 0 <= x211 <= 1
 0 <= x212 <= 1
 0 <= x213 <= 1
 0 <= x214 <= 1
 0 <= x215 <= 1
 0 <= x216 <= 1
 0 <= x217 <= 1
 0 <= x218 <= 1
 0 <= x219 <= 1
 0 <= x220 <= 1
 0 <= x221 <= 1
 0 <= x222 <= 1
 0 <= x223 <= 1
 0 <= x224 <= 1
 0 <= x225 <= 1
 0 <= x226 <= 1
 0 <= x227 <= 1
 0 <= x228 <= 1
 0 <= x229 <= 1
 0 <= x230 <= 1
 0 <= x231 <= 1
 0 <= x232 <= 1
 0 <= x233 <= 1
 0 <= x234 <= 1
 0 <= x235 <= 1
 0 <= x236 <= 1
 0 <= x237 <= 1
 0 <= x238 <= 1
 0 <= x239 <= 1
 0 <= x240 <= 1
 0 <= x241 <= 1
 0 <= x242 <= 1
 0 <= x243 <= 1
 0 <= x244 <= 1
 0 <= x245 <= 1
 0 <= x246 <= 1
 0 <= x247 <= 1
 0 <= x248 <= 1
 0 <= x249 <= 1
 0 <= x250 <= 1
 0 <= x251 <= 1
 0 <= x252 <= 1
 0 <= x253 <= 1
 0 <= x254 <= 1
 0 <= x255 <= 1
 0 <= x256 <= 1
 0 <= x257 <= 1
 0 <= x258 <= 1
 0 <= x259 <= 1
 0 <= x260 <= 1
 0 <= x261 <= 1
 0 <= x262 <= 1
 0 <= x263 <= 1
 0 <= x264 <= 1
 0 <= x265 <= 1
 0 <= x266 <= 1
 0 <= x267 <= 1
 0 <= x268 <= 1
 0 <= x269 <= 1
 0 <= x270 <= 1
 0 <= x271 <= 1
 0 <= x272 <= 1
 0 <= x273 <= 1
 0 <= x274 <= 1
 0 <= x275 <= 1
 0 <= x276 <= 1
 0 <= x277 <= 1
 0 <= x278 <= 1
 0 <= x279 <= 1
 0 <= x280 <= 1
 0 <= x281 <= 1
 0 <= x282 <= 1
 0 <= x283 <= 1
 0 <= x284 <= 1
 0 <= x285 <= 1
 0 <= x286 <= 1
 0 <= x287 <= 1
 0 <= x288 <= 1
 0 <= x289 <= 1
 0 <= x290 <= 1
 0 <= x291 <= 1
 0 <= x292 <= 1
 0 <= x293 <= 1
 0 <= x294 <= 1
 0 <= x295 <= 1
 0 <= x296 <= 1
 0 <= x297 <= 1
 0 <= x298 <= 1
 0 <= x299 <= 1
 0 <= x300 <= 1
 0 <= x301 <= 1
 0 <= x302 <= 1
 0 <= x303 <= 1
 0 <= x304 <= 1
 0 <= x305 <= 1
 0 <= x306 <= 1
 0 <= x307 <= 1
 0 <= x308 <= 1
 0 <= x309 <= 1
 0 <= x310 <= 1
 0 <= x311 <= 1
 0 <= x312 <= 1
 0 <= x313 <= 1
 0 <= x314 <= 1
 0 <= x315 <= 1
 0 <= x316 <= 1
 0 <= x317 <= 1
 0 <= x318 <= 1
 0 <= x319 <= 1
 0 <= x320 <= 1
 0 <= x321 <= 1
 0 <= x322 <= 1
 0 <= x323 <= 1
 0 <= x324 <= 1
 0 <= x325 <= 1
 0 <= x326 <= 1
 0 <= x327 <= 1
 0 <= x328 <= 1
 0 <= x329 <= 1
 0 <= x330 <= 1
 0 <= x331 <= 1
 0 <= x332 <= 1
 0 <= x333 <= 1
 0 <= x334 <= 1
 0 <= x335 <= 1
 0 <= x336 <= 1
 0 <= x337 <= 1
 0 <= x338 <= 1
 0 <= x339 <= 1
 0 <= x340 <= 1
 0 <= x341 <= 1
 0 <= x342 <= 1
 0 <= x343 <= 1
 0 <= x344 <= 1
 0 <= x345 <= 1
 0 <= x346 <= 1
 0 <= x347 <= 1
 0 <= x348 <= 1
 0 <= x349 <= 1
 0 <= x350 <= 1
 0 <= x351 <= 1
 0 <= x352 <= 1
 0 <= x353 <= 1
 0 <= x354 <= 1
 0 <= x355 <= 1
 0 <= x356 <= 1
 0 <= x357 <= 1
 0 <= x358 <= 1
 0 <= x359 <= 1
 0 <= x360 <= 1
 0 <= x361 <= 6
 0 <= x362 <= 6
 0 <= x363 <= 6
 0 <= x364 <= 6
 0 <= x365 <= 6
 0 <= x366 <= 6
 0 <= x367 <= 6
 0 <= x368 <= 6
 0 <= x369 <= 6
 0 <= x370 <= 6
 0 <= x371 <= 6
 0 <= x372 <= 6
 0 <= x373 <= 6
 0 <= x374 <= 6
 0 <= x375 <= 6
 0 <= x376 <= 6
 0 <= x377 <= 6
 0 <= x378 <= 6
 0 <= x379 <= 6
 0 <= x380 <= 6
 0 <= x381 <= 6
 0 <= x382 <= 6
 0 <= x383 <= 6
 0 <= x384 <= 6
 0 <= x385 <= 6
 0 <= x386 <= 6
 0 <= x387 <= 6
 0 <= x388 <= 6
 0 <= x389 <= 6
 0 <= x390 <= 6
 0 <= x391 <= 1
 0 <= x392 <= 1
 0 <= x393 <= 1
 0 <= x394 <= 1
 0 <= x395 <= 1
 0 <= x396 <= 6
 0 <= x397 <= 1
 0 <= x398 <= 1
 0 <= x399 <= 1
 0 <= x400 <= 1
 0 <= x401 <= 1
 0 <= x402 <= 6
 0 <= x403 <= 1
 0 <= x404 <= 1
 0 <= x405 <= 1
 0 <= x406 <= 1
 0 <= x407 <= 1
 0 <= x408 <= 6
 0 <= x409 <= 1
 0 <= x410 <= 1
 0 <= x411 <= 1
 0 <= x412 <= 1
 0 <= x413 <= 1
 0 <= x414 <= 6
 0 <= x415 <= 1
 0 <= x416 <= 1
 0 <= x417 <= 1
 0 <= x418 <= 1
 0 <= x419 <= 1
 0 <= x420 <= 6
 0 <= x421 <= 1
 0 <= x422 <= 1
 0 <= x423 <= 1
 0 <= x424 <= 1
 0 <= x425 <= 1
 0 <= x426 <= 6
Binaries
 x1  x2  x3  x4  x5  x6  x7  x8  x9  x10  x11  x12  x13  x14  x15  x16  x17 
 x18  x19  x20  x21  x22  x23  x24  x25  x26  x27  x28  x29  x30  x31  x32 
 x33  x34  x35  x36  x37  x38  x39  x40  x41  x42  x43  x44  x45  x46  x47 
 x48  x49  x50  x51  x52  x53  x54  x55  x56  x57  x58  x59  x60  x61  x62 
 x63  x64  x65  x66  x67  x68  x69  x70  x71  x72  x73  x74  x75  x76  x77 
 x78  x79  x80  x81  x82  x83  x84  x85  x86  x87  x88  x89  x90  x91  x92 
 x93  x94  x95  x96  x97  x98  x99  x100  x101  x102  x103  x104  x105  x106 
 x107  x108  x109  x110  x111  x112  x113  x114  x115  x116  x117  x118  x119 
 x120  x121  x122  x123  x124  x125  x126  x127  x128  x129  x130  x131  x132 
 x133  x134  x135  x136  x137  x138  x139  x140  x141  x142  x143  x144  x145 
 x146  x147  x148  x149  x150  x151  x152  x153  x154  x155  x156  x157  x158 
 x159  x160  x161  x162  x163  x164  x165  x166  x167  x168  x169  x170  x171 
 x172  x173  x174  x175  x176  x177  x178  x179  x180  x211  x212  x213  x214 
 x215  x216  x217  x218  x219  x220  x221  x222  x223  x224  x225  x226  x227 
 x228  x229  x230  x231  x232  x233  x234  x235  x236  x237  x238  x239  x240 
 x241  x242  x243  x244  x245  x246  x247  x248  x249  x250  x251  x252  x253 
 x254  x255  x256  x257  x258  x259  x260  x261  x262  x263  x264  x265  x266 
 x267  x268  x269  x270  x271  x272  x273  x274  x275  x276  x277  x278  x279 
 x280  x281  x282  x283  x284  x285  x286  x287  x288  x289  x290  x291  x292 
 x293  x294  x295  x296  x297  x298  x299  x300  x301  x302  x303  x304  x305 
 x306  x307  x308  x309  x310  x311  x312  x313  x314  x315  x316  x317  x318 
 x319  x320  x321  x322  x323  x324  x325  x326  x327  x328  x329  x330  x331 
 x332  x333  x334  x335  x336  x337  x338  x339  x340  x341  x342  x343  x344 
 x345  x346  x347  x348  x349  x350  x351  x352  x353  x354  x355  x356  x357 
 x358  x359  x360  x391  x392  x393  x394  x395  x397  x398  x399  x400  x401 
 x403  x404  x405  x406  x407  x409  x410  x411  x412  x413  x415  x416  x417 
 x418  x419  x421  x422  x423  x424  x425 
End
